p cnf 24 189
1 4 7 10 13 16 19 22 0
2 5 8 11 14 17 20 23 0
3 6 9 12 15 18 21 24 0
-1 -14 0
-1 -15 0
-2 -13 0
-2 -15 0
-3 -13 0
-3 -14 0
-1 -20 0
-1 -21 0
-2 -19 0
-2 -21 0
-3 -19 0
-3 -20 0
-1 -23 0
-1 -24 0
-2 -22 0
-2 -24 0
-3 -22 0
-3 -23 0
-4 -11 0
-4 -12 0
-5 -10 0
-5 -12 0
-6 -10 0
-6 -11 0
-4 -14 0
-4 -15 0
-5 -13 0
-5 -15 0
-6 -13 0
-6 -14 0
-4 -17 0
-4 -18 0
-5 -16 0
-5 -18 0
-6 -16 0
-6 -17 0
-7 -17 0
-7 -18 0
-8 -16 0
-8 -18 0
-9 -16 0
-9 -17 0
-7 -20 0
-7 -21 0
-8 -19 0
-8 -21 0
-9 -19 0
-9 -20 0
-7 -23 0
-7 -24 0
-8 -22 0
-8 -24 0
-9 -22 0
-9 -23 0
-10 -17 0
-10 -18 0
-11 -16 0
-11 -18 0
-12 -16 0
-12 -17 0
-10 -20 0
-10 -21 0
-11 -19 0
-11 -21 0
-12 -19 0
-12 -20 0
-13 -17 0
-13 -18 0
-14 -16 0
-14 -18 0
-15 -16 0
-15 -17 0
-13 -20 0
-13 -21 0
-14 -19 0
-14 -21 0
-15 -19 0
-15 -20 0
-25 -5 0
-25 -6 0
-26 -4 0
-26 -6 0
-27 -4 0
-27 -5 0
-25 -8 0
-25 -9 0
-26 -7 0
-26 -9 0
-27 -7 0
-27 -8 0
-25 -11 0
-25 -12 0
-26 -10 0
-26 -12 0
-27 -10 0
-27 -11 0
-25 -14 0
-25 -15 0
-26 -13 0
-26 -15 0
-27 -13 0
-27 -14 0
-25 -17 0
-25 -18 0
-26 -16 0
-26 -18 0
-27 -16 0
-27 -17 0
-25 -20 0
-25 -21 0
-26 -19 0
-26 -21 0
-27 -19 0
-27 -20 0
-25 -23 0
-25 -24 0
-26 -22 0
-26 -24 0
-27 -22 0
-27 -23 0
-28 -8 0
-28 -9 0
-29 -7 0
-29 -9 0
-30 -7 0
-30 -8 0
-28 -11 0
-28 -12 0
-29 -10 0
-29 -12 0
-30 -10 0
-30 -11 0
-28 -14 0
-28 -15 0
-29 -13 0
-29 -15 0
-30 -13 0
-30 -14 0
-28 -17 0
-28 -18 0
-29 -16 0
-29 -18 0
-30 -16 0
-30 -17 0
-28 -20 0
-28 -21 0
-29 -19 0
-29 -21 0
-30 -19 0
-30 -20 0
-28 -23 0
-28 -24 0
-29 -22 0
-29 -24 0
-30 -22 0
-30 -23 0
-31 -11 0
-31 -12 0
-32 -10 0
-32 -12 0
-33 -10 0
-33 -11 0
-31 -14 0
-31 -15 0
-32 -13 0
-32 -15 0
-33 -13 0
-33 -14 0
-31 -17 0
-31 -18 0
-32 -16 0
-32 -18 0
-33 -16 0
-33 -17 0
-31 -20 0
-31 -21 0
-32 -19 0
-32 -21 0
-33 -19 0
-33 -20 0
-31 -23 0
-31 -24 0
-32 -22 0
-32 -24 0
-33 -22 0
-33 -23 0
-34 -14 0
-34 -15 0
-35 -13 0
-35 -15 0
-36 -13 0
-36 -14 0
-34 -17 0
-34 -18 0
-35 -16 0
-35 -18 0
-36 -16 0
-36 -17 0
-34 -20 0
-34 -21 0
-35 -19 0
-35 -21 0
-36 -19 0
-36 -20 0
-34 -23 0
-34 -24 0
-35 -22 0
-35 -24 0
-36 -22 0
-36 -23 0
-37 -17 0
-37 -18 0
-38 -16 0
-38 -18 0
-39 -16 0
-39 -17 0
-37 -20 0
-37 -21 0
-38 -19 0
-38 -21 0
-39 -19 0
-39 -20 0
-37 -23 0
-37 -24 0
-38 -22 0
-38 -24 0
-39 -22 0
-39 -23 0
-40 -20 0
-40 -21 0
-41 -19 0
-41 -21 0
-42 -19 0
-42 -20 0
-40 -23 0
-40 -24 0
-41 -22 0
-41 -24 0
-42 -22 0
-42 -23 0
-43 -23 0
-43 -24 0
-44 -22 0
-44 -24 0
-45 -22 0
-45 -23 0
-1 -4 0
-1 -7 0
-1 -10 0
-1 -13 0
-1 -16 0
-1 -19 0
-1 -22 0
-2 -5 0
-2 -8 0
-2 -11 0
-2 -14 0
-2 -17 0
-2 -20 0
-2 -23 0
-3 -6 0
-3 -9 0
-3 -12 0
-3 -15 0
-3 -18 0
-3 -21 0
-3 -24 0
-4 -7 0
-4 -10 0
-4 -13 0
-4 -16 0
-4 -19 0
-4 -22 0
-5 -8 0
-5 -11 0
-5 -14 0
-5 -17 0
-5 -20 0
-5 -23 0
-6 -9 0
-6 -12 0
-6 -15 0
-6 -18 0
-6 -21 0
-6 -24 0
-7 -10 0
-7 -13 0
-7 -16 0
-7 -19 0
-7 -22 0
-8 -11 0
-8 -14 0
-8 -17 0
-8 -20 0
-8 -23 0
-9 -12 0
-9 -15 0
-9 -18 0
-9 -21 0
-9 -24 0
-10 -13 0
-10 -16 0
-10 -19 0
-10 -22 0
-11 -14 0
-11 -17 0
-11 -20 0
-11 -23 0
-12 -15 0
-12 -18 0
-12 -21 0
-12 -24 0
-13 -16 0
-13 -19 0
-13 -22 0
-14 -17 0
-14 -20 0
-14 -23 0
-15 -18 0
-15 -21 0
-15 -24 0
-16 -19 0
-16 -22 0
-17 -20 0
-17 -23 0
-18 -21 0
-18 -24 0
-19 -22 0
-20 -23 0
-21 -24 0
-1 -2 0
-1 -3 0
-2 -3 0
-4 -5 0
-4 -6 0
-5 -6 0
-7 -8 0
-7 -9 0
-8 -9 0
-10 -11 0
-10 -12 0
-11 -12 0
-13 -14 0
-13 -15 0
-14 -15 0
-16 -17 0
-16 -18 0
-17 -18 0
-19 -20 0
-19 -21 0
-20 -21 0
-22 -23 0
-22 -24 0
-23 -24 0
